N = 10;
H = 5;
T = 2;

avail = array3d(1..N, 1..H, 1..T, [8, 6, 1, 8, 5, 4, 5, 8, 4, 2, 0, 0, 9, 3, 9, 2, 2, 6, 0, 5, 0, 8, 2, 5, 9, 2, 9, 7, 9, 5, 9, 3, 2, 4, 6, 4, 2, 4, 4, 7, 8, 6, 7, 6, 9, 4, 1, 3, 9, 9, 5, 7, 2, 4, 8, 7, 6, 10, 0, 10, 5, 7, 5, 1, 8, 4, 8, 7, 6, 2, 5, 8, 4, 2, 5, 6, 0, 3, 5, 3, 10, 6, 4, 3, 4, 3, 0, 2, 7, 4, 2, 5, 8, 2, 7, 4, 6, 9, 7, 4]);

r = array2d(1..H, 1..T, [3, 3, 2, 3, 3, 1, 2, 2, 2, 4]);
